NAME : graph2
COMMENT : H Algorithm Solution by Oscar Riveros [http://twitter.com/maxtuno]
TYPE : TOUR
DIMENSION : 70
TOUR_SECTION
49
11
8
3
48
1
12
44
53
18
36
50
68
57
65
32
41
56
31
21
47
43
29
70
55
42
46
39
69
13
25
33
34
10
2
54
52
15
26
22
20
51
66
61
28
63
37
17
35
4
19
7
9
16
30
5
27
62
60
14
24
67
6
58
59
40
23
38
64
45
-1
EOF
